n_res = 4;
rc = [ 31, 27, 15, 24 ];
n_tasks = 30;
d = [ 10, 5, 2, 4, 6, 6, 2, 2, 7, 2, 2, 6, 7, 1, 3, 5, 4, 4, 5, 9, 2, 9, 7, 10, 9, 1, 8, 2, 6, 4 ];
rr = [| 31, 31, 31, 31, 31, 31, 31, 31, 31, 31, 31, 31, 31, 31, 31, 31, 31, 31, 31, 31, 31, 31, 31, 31, 31, 31, 31, 31, 31, 31
      | 27, 27, 27, 27, 27, 27, 27, 27, 27, 27, 27, 27, 27, 27, 27, 27, 27, 27, 27, 27, 27, 27, 27, 27, 27, 27, 27, 27, 27, 27
      | 15, 15, 15, 15, 15, 15, 15, 15, 15, 15, 15, 15, 15, 15, 15, 15, 15, 15, 15, 15, 15, 15, 15, 15, 15, 15, 15, 15, 15, 15
      | 24, 24, 24, 24, 24, 24, 24, 24, 24, 24, 24, 24, 24, 24, 24, 24, 24, 24, 24, 24, 24, 24, 24, 24, 24, 24, 24, 24, 24, 24|];
suc = [ { 7, 14 },
       { 10, 12, 26 },
       { 4, 6, 15 },
       { 5, 18, 20 },
       { 22 },
       { 9, 29 },
       { 8, 11, 19 },
       { 16, 21 },
       { 13, 26 },
       { 11 },
       { 24 },
       { 24 },
       { 17, 23 },
       { 26 },
       { 27 },
       { 18, 29 },
       { 24 },
       { 25 },
       { 25 },
       { 29 },
       { 23 },
       { 28, 30 },
       { 25 },
       { 27 },
       { 28 },
       { 27 },
       { 30 },
       {  },
       {  },
       {  } ];
